(set-logic QF_S)
(declare-fun var_0xINPUT_133844 () String)
(assert (and (not (= var_0xINPUT_133844 "4PH2ujcENG")) (= (len var_0xINPUT_133844) 0) (not (= var_0xINPUT_133844 "Example:")) (not (= var_0xINPUT_133844 "4PH2ujcENG"))))
(check-sat var_0xINPUT_133844)